NAME: tsp30_22
COMMENT: 30-tsp problem (Padberg/Rinaldi)
TYPE: TSP
DIMENSION: 30
EDGE_WEIGHT_TYPE : EUC_2D
NODE_COORD_SECTION
1 28 12
2 32 25
3 26 8
4 32 37
5 0 16
6 27 12
7 29 5
8 9 13
9 18 34
10 4 20
11 20 25
12 10 18
13 1 30
14 20 38
15 20 4
16 13 38
17 19 19
18 7 6
19 9 36
20 37 24
21 8 4
22 19 19
23 29 5
24 37 20
25 7 15
26 23 13
27 5 31
28 24 14
29 14 34
30 15 36
